certificates/rado_a14_c162_N49.cnf
c Rad2 upper bound instance: x1 + 14*x2 - x3 = 162, interval [1,49]
p cnf 49 338
1 7 12 0
-1 -7 -12 0
1 13 21 0
-1 -13 -21 0
1 14 35 0
-1 -14 -35 0
1 15 49 0
-1 -15 -49 0
2 8 12 0
-2 -8 -12 0
2 13 22 0
-2 -13 -22 0
2 14 36 0
-2 -14 -36 0
3 9 12 0
-3 -9 -12 0
3 13 23 0
-3 -13 -23 0
3 14 37 0
-3 -14 -37 0
4 10 12 0
-4 -10 -12 0
4 13 24 0
-4 -13 -24 0
4 14 38 0
-4 -14 -38 0
5 11 12 0
-5 -11 -12 0
5 13 25 0
-5 -13 -25 0
5 14 39 0
-5 -14 -39 0
6 12 0
-6 -12 0
6 13 26 0
-6 -13 -26 0
6 14 40 0
-6 -14 -40 0
7 12 13 0
-7 -12 -13 0
7 13 27 0
-7 -13 -27 0
7 14 41 0
-7 -14 -41 0
8 12 14 0
-8 -12 -14 0
8 13 28 0
-8 -13 -28 0
8 14 42 0
-8 -14 -42 0
1 9 11 0
-1 -9 -11 0
9 12 15 0
-9 -12 -15 0
9 13 29 0
-9 -13 -29 0
9 14 43 0
-9 -14 -43 0
2 10 11 0
-2 -10 -11 0
10 12 16 0
-10 -12 -16 0
10 13 30 0
-10 -13 -30 0
10 14 44 0
-10 -14 -44 0
3 11 0
-3 -11 0
11 12 17 0
-11 -12 -17 0
11 13 31 0
-11 -13 -31 0
11 14 45 0
-11 -14 -45 0
4 11 12 0
-4 -11 -12 0
12 18 0
-12 -18 0
12 13 32 0
-12 -13 -32 0
12 14 46 0
-12 -14 -46 0
5 11 13 0
-5 -11 -13 0
12 13 19 0
-12 -13 -19 0
13 33 0
-13 -33 0
13 14 47 0
-13 -14 -47 0
6 11 14 0
-6 -11 -14 0
12 14 20 0
-12 -14 -20 0
13 14 34 0
-13 -14 -34 0
14 48 0
-14 -48 0
7 11 15 0
-7 -11 -15 0
12 15 21 0
-12 -15 -21 0
13 15 35 0
-13 -15 -35 0
14 15 49 0
-14 -15 -49 0
8 11 16 0
-8 -11 -16 0
12 16 22 0
-12 -16 -22 0
13 16 36 0
-13 -16 -36 0
9 11 17 0
-9 -11 -17 0
12 17 23 0
-12 -17 -23 0
13 17 37 0
-13 -17 -37 0
10 11 18 0
-10 -11 -18 0
12 18 24 0
-12 -18 -24 0
13 18 38 0
-13 -18 -38 0
11 19 0
-11 -19 0
12 19 25 0
-12 -19 -25 0
13 19 39 0
-13 -19 -39 0
11 12 20 0
-11 -12 -20 0
12 20 26 0
-12 -20 -26 0
13 20 40 0
-13 -20 -40 0
11 13 21 0
-11 -13 -21 0
12 21 27 0
-12 -21 -27 0
13 21 41 0
-13 -21 -41 0
11 14 22 0
-11 -14 -22 0
12 22 28 0
-12 -22 -28 0
13 22 42 0
-13 -22 -42 0
1 10 23 0
-1 -10 -23 0
11 15 23 0
-11 -15 -23 0
12 23 29 0
-12 -23 -29 0
13 23 43 0
-13 -23 -43 0
2 10 24 0
-2 -10 -24 0
11 16 24 0
-11 -16 -24 0
12 24 30 0
-12 -24 -30 0
13 24 44 0
-13 -24 -44 0
3 10 25 0
-3 -10 -25 0
11 17 25 0
-11 -17 -25 0
12 25 31 0
-12 -25 -31 0
13 25 45 0
-13 -25 -45 0
4 10 26 0
-4 -10 -26 0
11 18 26 0
-11 -18 -26 0
12 26 32 0
-12 -26 -32 0
13 26 46 0
-13 -26 -46 0
5 10 27 0
-5 -10 -27 0
11 19 27 0
-11 -19 -27 0
12 27 33 0
-12 -27 -33 0
13 27 47 0
-13 -27 -47 0
6 10 28 0
-6 -10 -28 0
11 20 28 0
-11 -20 -28 0
12 28 34 0
-12 -28 -34 0
13 28 48 0
-13 -28 -48 0
7 10 29 0
-7 -10 -29 0
11 21 29 0
-11 -21 -29 0
12 29 35 0
-12 -29 -35 0
13 29 49 0
-13 -29 -49 0
8 10 30 0
-8 -10 -30 0
11 22 30 0
-11 -22 -30 0
12 30 36 0
-12 -30 -36 0
9 10 31 0
-9 -10 -31 0
11 23 31 0
-11 -23 -31 0
12 31 37 0
-12 -31 -37 0
10 32 0
-10 -32 0
11 24 32 0
-11 -24 -32 0
12 32 38 0
-12 -32 -38 0
10 11 33 0
-10 -11 -33 0
11 25 33 0
-11 -25 -33 0
12 33 39 0
-12 -33 -39 0
10 12 34 0
-10 -12 -34 0
11 26 34 0
-11 -26 -34 0
12 34 40 0
-12 -34 -40 0
10 13 35 0
-10 -13 -35 0
11 27 35 0
-11 -27 -35 0
12 35 41 0
-12 -35 -41 0
10 14 36 0
-10 -14 -36 0
11 28 36 0
-11 -28 -36 0
12 36 42 0
-12 -36 -42 0
1 9 37 0
-1 -9 -37 0
10 15 37 0
-10 -15 -37 0
11 29 37 0
-11 -29 -37 0
12 37 43 0
-12 -37 -43 0
2 9 38 0
-2 -9 -38 0
10 16 38 0
-10 -16 -38 0
11 30 38 0
-11 -30 -38 0
12 38 44 0
-12 -38 -44 0
3 9 39 0
-3 -9 -39 0
10 17 39 0
-10 -17 -39 0
11 31 39 0
-11 -31 -39 0
12 39 45 0
-12 -39 -45 0
4 9 40 0
-4 -9 -40 0
10 18 40 0
-10 -18 -40 0
11 32 40 0
-11 -32 -40 0
12 40 46 0
-12 -40 -46 0
5 9 41 0
-5 -9 -41 0
10 19 41 0
-10 -19 -41 0
11 33 41 0
-11 -33 -41 0
12 41 47 0
-12 -41 -47 0
6 9 42 0
-6 -9 -42 0
10 20 42 0
-10 -20 -42 0
11 34 42 0
-11 -34 -42 0
12 42 48 0
-12 -42 -48 0
7 9 43 0
-7 -9 -43 0
10 21 43 0
-10 -21 -43 0
11 35 43 0
-11 -35 -43 0
12 43 49 0
-12 -43 -49 0
8 9 44 0
-8 -9 -44 0
10 22 44 0
-10 -22 -44 0
11 36 44 0
-11 -36 -44 0
9 45 0
-9 -45 0
10 23 45 0
-10 -23 -45 0
11 37 45 0
-11 -37 -45 0
9 10 46 0
-9 -10 -46 0
10 24 46 0
-10 -24 -46 0
11 38 46 0
-11 -38 -46 0
9 11 47 0
-9 -11 -47 0
10 25 47 0
-10 -25 -47 0
11 39 47 0
-11 -39 -47 0
9 12 48 0
-9 -12 -48 0
10 26 48 0
-10 -26 -48 0
11 40 48 0
-11 -40 -48 0
9 13 49 0
-9 -13 -49 0
10 27 49 0
-10 -27 -49 0
11 41 49 0
-11 -41 -49 0
