certificates/rado_a14_c162_N49.drat
9 14 -49 0
-48 -49 0
45 -49 0
-49 0
-45 0
9 0
14 0
-48 0
-43 0
12 0
-6 0
-18 0
-3 0
-46 0
-20 0
-8 0
-15 0
11 0
1 0
-19 0
0
